************************************************************************
file with basedata            : j60_51.bas
initial value random generator: 967898046
************************************************************************
projects                      :  1
jobs (incl. supersource/sink ):  62
horizon                       :  323
RESOURCES
  - renewable                 :  4   R
  - nonrenewable              :  0   N
  - doubly constrained        :  0   D
************************************************************************
PROJECT INFORMATION:
pronr.  #jobs rel.date duedate tardcost  MPM-Time
    1     60      0       73       53       73
************************************************************************
PRECEDENCE RELATIONS:
jobnr.    #modes  #successors   successors
   1        1          3           2   3   4
   2        1          3          11  15  16
   3        1          3           6   7  19
   4        1          3           5   8  12
   5        1          3           9  16  24
   6        1          2          15  25
   7        1          3           9  17  24
   8        1          1          27
   9        1          3          10  13  35
  10        1          2          11  25
  11        1          3          14  26  43
  12        1          3          27  29  32
  13        1          3          23  31  41
  14        1          3          18  20  29
  15        1          3          17  22  56
  16        1          1          35
  17        1          3          28  33  34
  18        1          3          30  38  40
  19        1          3          21  30  45
  20        1          3          32  33  36
  21        1          3          36  56  58
  22        1          3          30  33  35
  23        1          2          27  37
  24        1          2          43  57
  25        1          2          46  50
  26        1          2          31  52
  27        1          2          28  48
  28        1          1          47
  29        1          3          49  55  61
  30        1          3          31  36  37
  31        1          1          58
  32        1          3          40  47  48
  33        1          3          37  38  47
  34        1          3          42  43  46
  35        1          3          38  51  54
  36        1          3          39  44  46
  37        1          2          39  50
  38        1          2          39  42
  39        1          2          53  59
  40        1          2          41  52
  41        1          2          49  55
  42        1          2          44  45
  43        1          2          44  45
  44        1          1          61
  45        1          1          53
  46        1          2          51  53
  47        1          3          50  57  59
  48        1          3          49  51  54
  49        1          1          56
  50        1          1          52
  51        1          1          59
  52        1          1          54
  53        1          1          61
  54        1          2          55  58
  55        1          1          60
  56        1          1          57
  57        1          1          60
  58        1          1          60
  59        1          1          62
  60        1          1          62
  61        1          1          62
  62        1          0        
************************************************************************
REQUESTS/DURATIONS:
jobnr. mode duration  R 1  R 2  R 3  R 4
------------------------------------------------------------------------
  1      1     0       0    0    0    0
  2      1    10       8    0    0    0
  3      1     6       0    0    2    0
  4      1     6       0    0    2    0
  5      1     3       1    0    0    0
  6      1     1       6    0    0    0
  7      1     4       0    0    5    0
  8      1     1       0    0    3    0
  9      1     4       0    0    5    0
 10      1     2       0   10    0    0
 11      1     3       0    8    0    0
 12      1     9       8    0    0    0
 13      1     3       0    0    0   10
 14      1     3       0    2    0    0
 15      1     1       8    0    0    0
 16      1     2       5    0    0    0
 17      1     4       0    0   10    0
 18      1     6       0    0    0    8
 19      1     2       0    0    0    6
 20      1     7       0    0    0    2
 21      1     1       0    0    0    5
 22      1     1       0    0    4    0
 23      1     8       8    0    0    0
 24      1     9       5    0    0    0
 25      1     6       0    3    0    0
 26      1    10       0    0    5    0
 27      1     8       0    0    0    9
 28      1     3       0    0    0    7
 29      1    10       7    0    0    0
 30      1     4       3    0    0    0
 31      1     2       0    4    0    0
 32      1     7       5    0    0    0
 33      1     8       0    0    8    0
 34      1     5       0    0    5    0
 35      1     5       0    0    7    0
 36      1     5       0    0    0    9
 37      1    10       0    0    0    5
 38      1     9       0    0    1    0
 39      1     1       0    0    0    2
 40      1     8       6    0    0    0
 41      1     1       0    0    0    9
 42      1     9       9    0    0    0
 43      1     4       0    3    0    0
 44      1     8       0    8    0    0
 45      1     5       0    0    2    0
 46      1    10       0    0    8    0
 47      1     7       0    2    0    0
 48      1     8       0    0    2    0
 49      1     7       0   10    0    0
 50      1     2       0    0    0   10
 51      1     4       0    1    0    0
 52      1     3       0    7    0    0
 53      1     2       5    0    0    0
 54      1     7       0    7    0    0
 55      1     8       6    0    0    0
 56      1     7       4    0    0    0
 57      1     6       0    8    0    0
 58      1    10       0    0    0    1
 59      1     7       0    0    0    5
 60      1     1       0    4    0    0
 61      1    10       0    0    0   10
 62      1     0       0    0    0    0
************************************************************************
RESOURCEAVAILABILITIES:
  R 1  R 2  R 3  R 4
   21   16   16   16
************************************************************************
